140
500
350	2
349	1
348	1
347	2
346	2
345	1
344	1
343	1
341	1
340	1
339	1
338	1
337	1
336	2
335	1
332	1
330	1
328	1
327	2
326	1
325	1
322	2
321	1
320	2
319	1
318	1
316	1
315	1
311	1
308	1
307	2
304	1
303	1
302	1
300	2
299	1
294	1
292	2
289	1
288	2
287	2
286	2
282	1
281	1
280	2
279	2
278	1
277	4
276	3
275	1
274	4
271	2
269	2
268	1
265	1
264	1
263	1
262	1
258	2
255	1
254	1
251	1
250	2
243	2
237	2
236	1
233	1
232	1
231	1
229	2
228	1
225	1
223	2
221	1
219	1
217	1
216	1
215	1
211	1
210	1
208	1
203	2
202	3
199	1
198	7
197	1
195	2
194	1
193	2
189	1
186	1
184	2
178	1
176	1
174	1
172	1
171	1
170	1
169	1
167	1
166	1
164	2
160	1
159	1
156	2
155	1
153	1
151	1
149	2
148	1
147	1
145	1
144	1
143	1
142	2
140	1
138	1
137	2
136	1
135	2
134	1
133	2
130	2
129	2
128	1
124	1
123	1
120	2
119	2
117	1
114	2
112	1
110	1
109	1
108	1
107	2
106	2
105	2
103	3
100	1
